result&benchmarks/Data/Ex1/verify/Output/id_i5_o5-1_process_dc_iter1Output/Counterexample.2.smt2
(set-info :source |printed by MathSAT|)
(declare-fun |id::x__param__@2| () (_ BitVec 32))
(declare-fun |id::x@2| () (_ BitVec 32))
(declare-fun |id::x__param__@3| () (_ BitVec 32))
(declare-fun |id::__retval__@2| () (_ BitVec 32))
(declare-fun |id::x@3| () (_ BitVec 32))
(declare-fun |id::x__param__@4| () (_ BitVec 32))
(declare-fun |id::x@4| () (_ BitVec 32))
(declare-fun |id::x__param__@5| () (_ BitVec 32))
(declare-fun |id::x@5| () (_ BitVec 32))
(declare-fun |id::x__param__@6| () (_ BitVec 32))
(declare-fun |id::x@6| () (_ BitVec 32))
(declare-fun |id::x__param__@7| () (_ BitVec 32))
(declare-fun |id::x@7| () (_ BitVec 32))
(declare-fun |id::iVar1@8| () (_ BitVec 32))
(declare-fun |id::__retval__@3| () (_ BitVec 32))
(declare-fun |id::__retval__@4| () (_ BitVec 32))
(declare-fun |id::__retval__@5| () (_ BitVec 32))
(declare-fun |id::__retval__@6| () (_ BitVec 32))
(declare-fun |id::__retval__@7| () (_ BitVec 32))
(declare-fun |id::iVar1@10| () (_ BitVec 32))
(declare-fun |id::iVar1@11| () (_ BitVec 32))
(declare-fun |id::iVar1@13| () (_ BitVec 32))
(declare-fun |id::iVar1@14| () (_ BitVec 32))
(declare-fun |id::iVar1@16| () (_ BitVec 32))
(declare-fun |id::iVar1@17| () (_ BitVec 32))
(declare-fun |id::iVar1@19| () (_ BitVec 32))
(declare-fun |id::iVar1@20| () (_ BitVec 32))
(declare-fun |id::iVar1@22| () (_ BitVec 32))
(declare-fun |id::iVar1@23| () (_ BitVec 32))
(declare-fun |main::iVar1@9| () (_ BitVec 32))
(assert (let ((.def_14 (= |id::x__param__@2| |id::x@2|)))(let ((.def_12 (= |id::x__param__@2| (_ bv5 32))))(let ((.def_201 (and .def_12 .def_14)))(let ((.def_15 (= |id::x@2| (_ bv0 32))))(let ((.def_19 (not .def_15)))(let ((.def_202 (and .def_19 .def_201)))(let ((.def_24 (bvadd (_ bv4294967295 32) |id::x@2|)))(let ((.def_26 (= .def_24 |id::x__param__@3|)))(let ((.def_203 (and .def_26 .def_202)))(let ((.def_62 (= |id::x__param__@3| |id::x@3|)))(let ((.def_204 (and .def_62 .def_203)))(let ((.def_63 (= |id::x@3| (_ bv0 32))))(let ((.def_65 (not .def_63)))(let ((.def_205 (and .def_65 .def_204)))(let ((.def_69 (bvadd (_ bv4294967295 32) |id::x@3|)))(let ((.def_71 (= .def_69 |id::x__param__@4|)))(let ((.def_206 (and .def_71 .def_205)))(let ((.def_73 (= |id::x__param__@4| |id::x@4|)))(let ((.def_207 (and .def_73 .def_206)))(let ((.def_74 (= |id::x@4| (_ bv0 32))))(let ((.def_76 (not .def_74)))(let ((.def_208 (and .def_76 .def_207)))(let ((.def_80 (bvadd (_ bv4294967295 32) |id::x@4|)))(let ((.def_82 (= .def_80 |id::x__param__@5|)))(let ((.def_209 (and .def_82 .def_208)))(let ((.def_84 (= |id::x__param__@5| |id::x@5|)))(let ((.def_210 (and .def_84 .def_209)))(let ((.def_85 (= |id::x@5| (_ bv0 32))))(let ((.def_87 (not .def_85)))(let ((.def_211 (and .def_87 .def_210)))(let ((.def_91 (bvadd (_ bv4294967295 32) |id::x@5|)))(let ((.def_93 (= .def_91 |id::x__param__@6|)))(let ((.def_212 (and .def_93 .def_211)))(let ((.def_95 (= |id::x__param__@6| |id::x@6|)))(let ((.def_213 (and .def_95 .def_212)))(let ((.def_96 (= |id::x@6| (_ bv0 32))))(let ((.def_98 (not .def_96)))(let ((.def_214 (and .def_98 .def_213)))(let ((.def_102 (bvadd (_ bv4294967295 32) |id::x@6|)))(let ((.def_104 (= .def_102 |id::x__param__@7|)))(let ((.def_215 (and .def_104 .def_214)))(let ((.def_106 (= |id::x__param__@7| |id::x@7|)))(let ((.def_216 (and .def_106 .def_215)))(let ((.def_107 (= |id::x@7| (_ bv0 32))))(let ((.def_217 (and .def_107 .def_216)))(let ((.def_111 (= |id::iVar1@8| (_ bv0 32))))(let ((.def_218 (and .def_111 .def_217)))(let ((.def_113 (= |id::__retval__@2| |id::iVar1@8|)))(let ((.def_219 (and .def_113 .def_218)))(let ((.def_156 (= |id::__retval__@2| |id::iVar1@10|)))(let ((.def_220 (and .def_156 .def_219)))(let ((.def_158 (bvadd (_ bv1 32) |id::iVar1@10|)))(let ((.def_160 (= .def_158 |id::iVar1@11|)))(let ((.def_221 (and .def_160 .def_220)))(let ((.def_161 (= |id::__retval__@3| |id::iVar1@11|)))(let ((.def_222 (and .def_161 .def_221)))(let ((.def_164 (= |id::__retval__@3| |id::iVar1@13|)))(let ((.def_223 (and .def_164 .def_222)))(let ((.def_166 (bvadd (_ bv1 32) |id::iVar1@13|)))(let ((.def_168 (= .def_166 |id::iVar1@14|)))(let ((.def_224 (and .def_168 .def_223)))(let ((.def_169 (= |id::__retval__@4| |id::iVar1@14|)))(let ((.def_225 (and .def_169 .def_224)))(let ((.def_172 (= |id::__retval__@4| |id::iVar1@16|)))(let ((.def_226 (and .def_172 .def_225)))(let ((.def_174 (bvadd (_ bv1 32) |id::iVar1@16|)))(let ((.def_176 (= .def_174 |id::iVar1@17|)))(let ((.def_227 (and .def_176 .def_226)))(let ((.def_177 (= |id::__retval__@5| |id::iVar1@17|)))(let ((.def_228 (and .def_177 .def_227)))(let ((.def_180 (= |id::__retval__@5| |id::iVar1@19|)))(let ((.def_229 (and .def_180 .def_228)))(let ((.def_182 (bvadd (_ bv1 32) |id::iVar1@19|)))(let ((.def_184 (= .def_182 |id::iVar1@20|)))(let ((.def_230 (and .def_184 .def_229)))(let ((.def_185 (= |id::__retval__@6| |id::iVar1@20|)))(let ((.def_231 (and .def_185 .def_230)))(let ((.def_188 (= |id::__retval__@6| |id::iVar1@22|)))(let ((.def_232 (and .def_188 .def_231)))(let ((.def_190 (bvadd (_ bv1 32) |id::iVar1@22|)))(let ((.def_192 (= .def_190 |id::iVar1@23|)))(let ((.def_233 (and .def_192 .def_232)))(let ((.def_193 (= |id::__retval__@7| |id::iVar1@23|)))(let ((.def_234 (and .def_193 .def_233)))(let ((.def_196 (= |id::__retval__@7| |main::iVar1@9|)))(let ((.def_235 (and .def_196 .def_234)))(let ((.def_197 (= |main::iVar1@9| (_ bv5 32))))(let ((.def_236 (and .def_197 .def_235))).def_236)))))))))))))))))))))))))))))))))))))))))))))))))))))))))))))))))))))))))))))))))))))))))